100
100
100
100
100
100
99
99
99
99
98
97
97
97
96
96
96
95
94
94
93
92
91
91
91
90
89
89
88
88
85
85
82
82
80
80
79
78
77
76
75
75
75
75
74
73
72
71
71
70
69
69
69
67
67
66
66
66
66
65
64
64
64
64
62
62
61
59
59
59
58
56
56
56
55
55
54
52
50
50
49
49
48
48
48
47
46
44
44
43
43
40
40
39
38
35
35
33
33
31
30
30
